NAME teste
ROWS
 N  OBJ
 E  R_pos1  
 E  R_pos2  
 E  R_pos3  
 E  R_pos4  
 E  R_pos5  
 E  R_pos6  
 E  R_pos7  
 E  R_pos8  
 E  R_pos9  
 E  R_pos10 
 E  R_pos11 
 E  R_pos12 
 E  R_pos13 
 E  R_pos14 
 E  R_pos15 
 E  R_pos16 
 E  R_pos17 
 E  R_pos18 
 E  R_pos19 
 E  R_pos20 
 E  R_pos21 
 E  R_pos22 
 E  R_pos23 
 E  R_pos24 
 E  R_pos25 
 E  R_pos26 
 E  R_pos27 
 E  R_pos28 
 E  R_pos29 
 E  R_pos30 
 E  R_pos31 
 E  R_pos32 
 E  R_pos33 
 E  R_pos34 
 E  R_pos35 
 E  R_pos36 
 E  R_pos37 
 E  R_pos38 
 E  R_pos39 
 E  R_pos40 
 E  R_col41 
 E  R_col42 
 E  R_col43 
 E  R_col44 
 E  R_col45 
 E  R_col46 
 E  R_col47 
 E  R_col48 
 E  R_col49 
 E  R_col50 
 E  R_col51 
 E  R_col52 
 E  R_col53 
 E  R_col54 
 E  R_col55 
 E  R_col56 
 E  R_col57 
 E  R_col58 
 E  R_col59 
 E  R_col60 
 E  R_col61 
 E  R_col62 
 E  R_col63 
 E  R_col64 
 E  R_col65 
 E  R_col66 
 E  R_col67 
 E  R_col68 
 E  R_col69 
 E  R_col70 
 E  R_col71 
 E  R_col72 
 E  R_col73 
 E  R_col74 
 E  R_col75 
 E  R_col76 
 E  R_col77 
 E  R_col78 
 E  R_col79 
 E  R_col80 
 E  R_row81 
 E  R_row82 
 E  R_row83 
 E  R_row84 
 E  R_row85 
 E  R_row86 
 E  R_row87 
 E  R_row88 
 E  R_row89 
 E  R_row90 
 E  R_row91 
 E  R_row92 
 E  R_row93 
 E  R_row94 
 E  R_row95 
 E  R_row96 
 E  R_row97 
 E  R_row98 
 E  R_row99 
 E  R_row100
 E  R_row101
 E  R_row102
 E  R_row103
 E  R_row104
 E  R_row105
 E  R_row106
 E  R_row107
 E  R_row108
 E  R_row109
 E  R_row110
 E  R_row111
 E  R_row112
 E  R_row113
 E  R_row114
 E  R_row115
 E  R_row116
 E  R_row117
 E  R_row118
 E  R_row119
 E  R_row120
 E  R_sub121
 E  R_sub122
 E  R_sub123
 E  R_sub124
 E  R_sub125
 E  R_sub126
 E  R_sub127
 E  R_sub128
 E  R_sub129
 E  R_sub130
 E  R_sub131
 E  R_sub132
 E  R_sub133
 E  R_sub134
 E  R_sub135
 E  R_sub136
 E  R_sub137
 E  R_sub138
 E  R_sub139
 E  R_sub140
 E  R_sub141
 E  R_sub142
 E  R_sub143
 E  R_sub144
 E  R_sub145
 E  R_sub146
 E  R_sub147
 E  R_sub148
 E  R_sub149
 E  R_sub150
 E  R_sub151
 E  R_sub152
 E  R_sub153
 E  R_sub154
 E  R_sub155
 E  R_sub156
 E  R_sub157
 E  R_sub158
 E  R_sub159
 E  R_sub160
COLUMNS
    MARKER    'MARKER'                 'INTORG'
    x_1,1,1   R_pos1    1
    x_1,1,1   R_col41   1
    x_1,1,1   R_row81   1
    x_1,1,2   R_pos1    1
    x_1,1,2   R_col42   1
    x_1,1,2   R_row82   1
    x_1,1,2   R_sub121  1
    x_1,1,3   R_pos1    1
    x_1,1,4   R_pos1    1
    x_1,1,4   R_col43   1
    x_1,1,4   R_row83   1
    x_1,1,4   R_sub122  1
    x_1,1,5   R_pos1    1
    x_1,1,5   R_col44   1
    x_1,1,5   R_row84   1
    x_1,1,5   R_sub123  1
    x_1,1,6   R_pos1    1
    x_1,1,6   R_col45   1
    x_1,1,6   R_sub124  1
    x_1,1,7   R_pos1    1
    x_1,1,7   R_row85   1
    x_1,1,7   R_sub125  1
    x_1,1,8   R_pos1    1
    x_1,1,8   R_row86   1
    x_1,1,9   R_pos1    1
    x_1,2,1   R_pos2    1
    x_1,2,1   R_row81   1
    x_1,2,2   R_pos2    1
    x_1,2,2   R_col46   1
    x_1,2,2   R_row82   1
    x_1,2,2   R_sub121  1
    x_1,2,3   R_pos2    1
    x_1,2,3   R_col47   1
    x_1,2,4   R_pos2    1
    x_1,2,4   R_row83   1
    x_1,2,4   R_sub122  1
    x_1,2,5   R_pos2    1
    x_1,2,5   R_col48   1
    x_1,2,5   R_row84   1
    x_1,2,5   R_sub123  1
    x_1,2,6   R_pos2    1
    x_1,2,6   R_col49   1
    x_1,2,6   R_sub124  1
    x_1,2,7   R_pos2    1
    x_1,2,7   R_col50   1
    x_1,2,7   R_row85   1
    x_1,2,7   R_sub125  1
    x_1,2,8   R_pos2    1
    x_1,2,8   R_row86   1
    x_1,2,9   R_pos2    1
    x_1,4,1   R_pos3    1
    x_1,4,1   R_col54   1
    x_1,4,1   R_row81   1
    x_1,4,1   R_sub126  1
    x_1,4,2   R_pos3    1
    x_1,4,2   R_row82   1
    x_1,4,2   R_sub127  1
    x_1,4,3   R_pos3    1
    x_1,4,3   R_col55   1
    x_1,4,3   R_sub128  1
    x_1,4,4   R_pos3    1
    x_1,4,4   R_row83   1
    x_1,4,5   R_pos3    1
    x_1,4,5   R_row84   1
    x_1,4,5   R_sub129  1
    x_1,4,6   R_pos3    1
    x_1,4,6   R_col56   1
    x_1,4,7   R_pos3    1
    x_1,4,7   R_col57   1
    x_1,4,7   R_row85   1
    x_1,4,7   R_sub130  1
    x_1,4,8   R_pos3    1
    x_1,4,8   R_row86   1
    x_1,4,9   R_pos3    1
    x_1,5,1   R_pos4    1
    x_1,5,1   R_row81   1
    x_1,5,1   R_sub126  1
    x_1,5,2   R_pos4    1
    x_1,5,2   R_col58   1
    x_1,5,2   R_row82   1
    x_1,5,2   R_sub127  1
    x_1,5,3   R_pos4    1
    x_1,5,3   R_col59   1
    x_1,5,3   R_sub128  1
    x_1,5,4   R_pos4    1
    x_1,5,4   R_col60   1
    x_1,5,4   R_row83   1
    x_1,5,5   R_pos4    1
    x_1,5,5   R_col61   1
    x_1,5,5   R_row84   1
    x_1,5,5   R_sub129  1
    x_1,5,6   R_pos4    1
    x_1,5,6   R_col62   1
    x_1,5,7   R_pos4    1
    x_1,5,7   R_row85   1
    x_1,5,7   R_sub130  1
    x_1,5,8   R_pos4    1
    x_1,5,8   R_row86   1
    x_1,5,9   R_pos4    1
    x_1,8,1   R_pos5    1
    x_1,8,1   R_col70   1
    x_1,8,1   R_row81   1
    x_1,8,1   R_sub131  1
    x_1,8,2   R_pos5    1
    x_1,8,2   R_row82   1
    x_1,8,2   R_sub132  1
    x_1,8,3   R_pos5    1
    x_1,8,3   R_col71   1
    x_1,8,4   R_pos5    1
    x_1,8,4   R_col72   1
    x_1,8,4   R_row83   1
    x_1,8,5   R_pos5    1
    x_1,8,5   R_row84   1
    x_1,8,5   R_sub133  1
    x_1,8,6   R_pos5    1
    x_1,8,7   R_pos5    1
    x_1,8,7   R_col73   1
    x_1,8,7   R_row85   1
    x_1,8,7   R_sub134  1
    x_1,8,8   R_pos5    1
    x_1,8,8   R_col74   1
    x_1,8,8   R_row86   1
    x_1,8,8   R_sub135  1
    x_1,8,9   R_pos5    1
    x_1,8,9   R_sub136  1
    x_1,9,1   R_pos6    1
    x_1,9,1   R_col75   1
    x_1,9,1   R_row81   1
    x_1,9,1   R_sub131  1
    x_1,9,2   R_pos6    1
    x_1,9,2   R_col76   1
    x_1,9,2   R_row82   1
    x_1,9,2   R_sub132  1
    x_1,9,3   R_pos6    1
    x_1,9,4   R_pos6    1
    x_1,9,4   R_col77   1
    x_1,9,4   R_row83   1
    x_1,9,5   R_pos6    1
    x_1,9,5   R_col78   1
    x_1,9,5   R_row84   1
    x_1,9,5   R_sub133  1
    x_1,9,6   R_pos6    1
    x_1,9,7   R_pos6    1
    x_1,9,7   R_col79   1
    x_1,9,7   R_row85   1
    x_1,9,7   R_sub134  1
    x_1,9,8   R_pos6    1
    x_1,9,8   R_row86   1
    x_1,9,8   R_sub135  1
    x_1,9,9   R_pos6    1
    x_1,9,9   R_col80   1
    x_1,9,9   R_sub136  1
    x_2,1,1   R_pos7    1
    x_2,1,1   R_col41   1
    x_2,1,2   R_pos7    1
    x_2,1,2   R_col42   1
    x_2,1,2   R_row87   1
    x_2,1,2   R_sub121  1
    x_2,1,3   R_pos7    1
    x_2,1,3   R_row88   1
    x_2,1,4   R_pos7    1
    x_2,1,4   R_col43   1
    x_2,1,4   R_sub122  1
    x_2,1,5   R_pos7    1
    x_2,1,5   R_col44   1
    x_2,1,5   R_row89   1
    x_2,1,5   R_sub123  1
    x_2,1,6   R_pos7    1
    x_2,1,6   R_col45   1
    x_2,1,6   R_row90   1
    x_2,1,6   R_sub124  1
    x_2,1,7   R_pos7    1
    x_2,1,7   R_row91   1
    x_2,1,7   R_sub125  1
    x_2,1,8   R_pos7    1
    x_2,1,9   R_pos7    1
    x_2,1,9   R_row92   1
    x_2,2,1   R_pos8    1
    x_2,2,2   R_pos8    1
    x_2,2,2   R_col46   1
    x_2,2,2   R_row87   1
    x_2,2,2   R_sub121  1
    x_2,2,3   R_pos8    1
    x_2,2,3   R_col47   1
    x_2,2,3   R_row88   1
    x_2,2,4   R_pos8    1
    x_2,2,4   R_sub122  1
    x_2,2,5   R_pos8    1
    x_2,2,5   R_col48   1
    x_2,2,5   R_row89   1
    x_2,2,5   R_sub123  1
    x_2,2,6   R_pos8    1
    x_2,2,6   R_col49   1
    x_2,2,6   R_row90   1
    x_2,2,6   R_sub124  1
    x_2,2,7   R_pos8    1
    x_2,2,7   R_col50   1
    x_2,2,7   R_row91   1
    x_2,2,7   R_sub125  1
    x_2,2,8   R_pos8    1
    x_2,2,9   R_pos8    1
    x_2,2,9   R_row92   1
    x_2,4,1   R_pos9    1
    x_2,4,1   R_col54   1
    x_2,4,1   R_sub126  1
    x_2,4,2   R_pos9    1
    x_2,4,2   R_row87   1
    x_2,4,2   R_sub127  1
    x_2,4,3   R_pos9    1
    x_2,4,3   R_col55   1
    x_2,4,3   R_row88   1
    x_2,4,3   R_sub128  1
    x_2,4,4   R_pos9    1
    x_2,4,5   R_pos9    1
    x_2,4,5   R_row89   1
    x_2,4,5   R_sub129  1
    x_2,4,6   R_pos9    1
    x_2,4,6   R_col56   1
    x_2,4,6   R_row90   1
    x_2,4,7   R_pos9    1
    x_2,4,7   R_col57   1
    x_2,4,7   R_row91   1
    x_2,4,7   R_sub130  1
    x_2,4,8   R_pos9    1
    x_2,4,9   R_pos9    1
    x_2,4,9   R_row92   1
    x_2,6,1   R_pos10   1
    x_2,6,1   R_col63   1
    x_2,6,1   R_sub126  1
    x_2,6,2   R_pos10   1
    x_2,6,2   R_row87   1
    x_2,6,2   R_sub127  1
    x_2,6,3   R_pos10   1
    x_2,6,3   R_col64   1
    x_2,6,3   R_row88   1
    x_2,6,3   R_sub128  1
    x_2,6,4   R_pos10   1
    x_2,6,5   R_pos10   1
    x_2,6,5   R_col65   1
    x_2,6,5   R_row89   1
    x_2,6,5   R_sub129  1
    x_2,6,6   R_pos10   1
    x_2,6,6   R_row90   1
    x_2,6,7   R_pos10   1
    x_2,6,7   R_col66   1
    x_2,6,7   R_row91   1
    x_2,6,7   R_sub130  1
    x_2,6,8   R_pos10   1
    x_2,6,8   R_col67   1
    x_2,6,9   R_pos10   1
    x_2,6,9   R_row92   1
    x_2,8,1   R_pos11   1
    x_2,8,1   R_col70   1
    x_2,8,1   R_sub131  1
    x_2,8,2   R_pos11   1
    x_2,8,2   R_row87   1
    x_2,8,2   R_sub132  1
    x_2,8,3   R_pos11   1
    x_2,8,3   R_col71   1
    x_2,8,3   R_row88   1
    x_2,8,4   R_pos11   1
    x_2,8,4   R_col72   1
    x_2,8,5   R_pos11   1
    x_2,8,5   R_row89   1
    x_2,8,5   R_sub133  1
    x_2,8,6   R_pos11   1
    x_2,8,6   R_row90   1
    x_2,8,7   R_pos11   1
    x_2,8,7   R_col73   1
    x_2,8,7   R_row91   1
    x_2,8,7   R_sub134  1
    x_2,8,8   R_pos11   1
    x_2,8,8   R_col74   1
    x_2,8,8   R_sub135  1
    x_2,8,9   R_pos11   1
    x_2,8,9   R_row92   1
    x_2,8,9   R_sub136  1
    x_2,9,1   R_pos12   1
    x_2,9,1   R_col75   1
    x_2,9,1   R_sub131  1
    x_2,9,2   R_pos12   1
    x_2,9,2   R_col76   1
    x_2,9,2   R_row87   1
    x_2,9,2   R_sub132  1
    x_2,9,3   R_pos12   1
    x_2,9,3   R_row88   1
    x_2,9,4   R_pos12   1
    x_2,9,4   R_col77   1
    x_2,9,5   R_pos12   1
    x_2,9,5   R_col78   1
    x_2,9,5   R_row89   1
    x_2,9,5   R_sub133  1
    x_2,9,6   R_pos12   1
    x_2,9,6   R_row90   1
    x_2,9,7   R_pos12   1
    x_2,9,7   R_col79   1
    x_2,9,7   R_row91   1
    x_2,9,7   R_sub134  1
    x_2,9,8   R_pos12   1
    x_2,9,8   R_sub135  1
    x_2,9,9   R_pos12   1
    x_2,9,9   R_col80   1
    x_2,9,9   R_row92   1
    x_2,9,9   R_sub136  1
    x_3,3,1   R_pos13   1
    x_3,3,1   R_row93   1
    x_3,3,2   R_pos13   1
    x_3,3,2   R_row94   1
    x_3,3,2   R_sub121  1
    x_3,3,3   R_pos13   1
    x_3,3,4   R_pos13   1
    x_3,3,4   R_col51   1
    x_3,3,4   R_sub122  1
    x_3,3,5   R_pos13   1
    x_3,3,5   R_col52   1
    x_3,3,5   R_row95   1
    x_3,3,5   R_sub123  1
    x_3,3,6   R_pos13   1
    x_3,3,6   R_sub124  1
    x_3,3,7   R_pos13   1
    x_3,3,7   R_row96   1
    x_3,3,7   R_sub125  1
    x_3,3,8   R_pos13   1
    x_3,3,8   R_col53   1
    x_3,3,9   R_pos13   1
    x_3,6,1   R_pos14   1
    x_3,6,1   R_col63   1
    x_3,6,1   R_row93   1
    x_3,6,1   R_sub126  1
    x_3,6,2   R_pos14   1
    x_3,6,2   R_row94   1
    x_3,6,2   R_sub127  1
    x_3,6,3   R_pos14   1
    x_3,6,3   R_col64   1
    x_3,6,3   R_sub128  1
    x_3,6,4   R_pos14   1
    x_3,6,5   R_pos14   1
    x_3,6,5   R_col65   1
    x_3,6,5   R_row95   1
    x_3,6,5   R_sub129  1
    x_3,6,6   R_pos14   1
    x_3,6,7   R_pos14   1
    x_3,6,7   R_col66   1
    x_3,6,7   R_row96   1
    x_3,6,7   R_sub130  1
    x_3,6,8   R_pos14   1
    x_3,6,8   R_col67   1
    x_3,6,9   R_pos14   1
    x_3,8,1   R_pos15   1
    x_3,8,1   R_col70   1
    x_3,8,1   R_row93   1
    x_3,8,1   R_sub131  1
    x_3,8,2   R_pos15   1
    x_3,8,2   R_row94   1
    x_3,8,2   R_sub132  1
    x_3,8,3   R_pos15   1
    x_3,8,3   R_col71   1
    x_3,8,4   R_pos15   1
    x_3,8,4   R_col72   1
    x_3,8,5   R_pos15   1
    x_3,8,5   R_row95   1
    x_3,8,5   R_sub133  1
    x_3,8,6   R_pos15   1
    x_3,8,7   R_pos15   1
    x_3,8,7   R_col73   1
    x_3,8,7   R_row96   1
    x_3,8,7   R_sub134  1
    x_3,8,8   R_pos15   1
    x_3,8,8   R_col74   1
    x_3,8,8   R_sub135  1
    x_3,8,9   R_pos15   1
    x_3,8,9   R_sub136  1
    x_3,9,1   R_pos16   1
    x_3,9,1   R_col75   1
    x_3,9,1   R_row93   1
    x_3,9,1   R_sub131  1
    x_3,9,2   R_pos16   1
    x_3,9,2   R_col76   1
    x_3,9,2   R_row94   1
    x_3,9,2   R_sub132  1
    x_3,9,3   R_pos16   1
    x_3,9,4   R_pos16   1
    x_3,9,4   R_col77   1
    x_3,9,5   R_pos16   1
    x_3,9,5   R_col78   1
    x_3,9,5   R_row95   1
    x_3,9,5   R_sub133  1
    x_3,9,6   R_pos16   1
    x_3,9,7   R_pos16   1
    x_3,9,7   R_col79   1
    x_3,9,7   R_row96   1
    x_3,9,7   R_sub134  1
    x_3,9,8   R_pos16   1
    x_3,9,8   R_sub135  1
    x_3,9,9   R_pos16   1
    x_3,9,9   R_col80   1
    x_3,9,9   R_sub136  1
    x_4,1,1   R_pos17   1
    x_4,1,1   R_col41   1
    x_4,1,2   R_pos17   1
    x_4,1,2   R_col42   1
    x_4,1,3   R_pos17   1
    x_4,1,3   R_row97   1
    x_4,1,4   R_pos17   1
    x_4,1,4   R_col43   1
    x_4,1,5   R_pos17   1
    x_4,1,5   R_col44   1
    x_4,1,5   R_row98   1
    x_4,1,5   R_sub137  1
    x_4,1,6   R_pos17   1
    x_4,1,6   R_col45   1
    x_4,1,6   R_sub138  1
    x_4,1,7   R_pos17   1
    x_4,1,7   R_row99   1
    x_4,1,8   R_pos17   1
    x_4,1,9   R_pos17   1
    x_4,5,1   R_pos18   1
    x_4,5,2   R_pos18   1
    x_4,5,2   R_col58   1
    x_4,5,3   R_pos18   1
    x_4,5,3   R_col59   1
    x_4,5,3   R_row97   1
    x_4,5,3   R_sub139  1
    x_4,5,4   R_pos18   1
    x_4,5,4   R_col60   1
    x_4,5,5   R_pos18   1
    x_4,5,5   R_col61   1
    x_4,5,5   R_row98   1
    x_4,5,5   R_sub140  1
    x_4,5,6   R_pos18   1
    x_4,5,6   R_col62   1
    x_4,5,6   R_sub141  1
    x_4,5,7   R_pos18   1
    x_4,5,7   R_row99   1
    x_4,5,7   R_sub142  1
    x_4,5,8   R_pos18   1
    x_4,5,8   R_sub143  1
    x_4,5,9   R_pos18   1
    x_4,9,1   R_pos19   1
    x_4,9,1   R_col75   1
    x_4,9,1   R_sub144  1
    x_4,9,2   R_pos19   1
    x_4,9,2   R_col76   1
    x_4,9,2   R_sub145  1
    x_4,9,3   R_pos19   1
    x_4,9,3   R_row97   1
    x_4,9,3   R_sub146  1
    x_4,9,4   R_pos19   1
    x_4,9,4   R_col77   1
    x_4,9,4   R_sub147  1
    x_4,9,5   R_pos19   1
    x_4,9,5   R_col78   1
    x_4,9,5   R_row98   1
    x_4,9,5   R_sub148  1
    x_4,9,6   R_pos19   1
    x_4,9,7   R_pos19   1
    x_4,9,7   R_col79   1
    x_4,9,7   R_row99   1
    x_4,9,7   R_sub149  1
    x_4,9,8   R_pos19   1
    x_4,9,9   R_pos19   1
    x_4,9,9   R_col80   1
    x_5,2,1   R_pos20   1
    x_5,2,2   R_pos20   1
    x_5,2,2   R_col46   1
    x_5,2,3   R_pos20   1
    x_5,2,3   R_col47   1
    x_5,2,4   R_pos20   1
    x_5,2,4   R_row100  1
    x_5,2,5   R_pos20   1
    x_5,2,5   R_col48   1
    x_5,2,5   R_row101  1
    x_5,2,5   R_sub137  1
    x_5,2,6   R_pos20   1
    x_5,2,6   R_col49   1
    x_5,2,6   R_row102  1
    x_5,2,6   R_sub138  1
    x_5,2,7   R_pos20   1
    x_5,2,7   R_col50   1
    x_5,2,7   R_row103  1
    x_5,2,8   R_pos20   1
    x_5,2,9   R_pos20   1
    x_5,4,1   R_pos21   1
    x_5,4,1   R_col54   1
    x_5,4,2   R_pos21   1
    x_5,4,3   R_pos21   1
    x_5,4,3   R_col55   1
    x_5,4,3   R_sub139  1
    x_5,4,4   R_pos21   1
    x_5,4,4   R_row100  1
    x_5,4,5   R_pos21   1
    x_5,4,5   R_row101  1
    x_5,4,5   R_sub140  1
    x_5,4,6   R_pos21   1
    x_5,4,6   R_col56   1
    x_5,4,6   R_row102  1
    x_5,4,6   R_sub141  1
    x_5,4,7   R_pos21   1
    x_5,4,7   R_col57   1
    x_5,4,7   R_row103  1
    x_5,4,7   R_sub142  1
    x_5,4,8   R_pos21   1
    x_5,4,8   R_sub143  1
    x_5,4,9   R_pos21   1
    x_5,7,1   R_pos22   1
    x_5,7,1   R_sub144  1
    x_5,7,2   R_pos22   1
    x_5,7,2   R_col68   1
    x_5,7,2   R_sub145  1
    x_5,7,3   R_pos22   1
    x_5,7,3   R_sub146  1
    x_5,7,4   R_pos22   1
    x_5,7,4   R_row100  1
    x_5,7,4   R_sub147  1
    x_5,7,5   R_pos22   1
    x_5,7,5   R_col69   1
    x_5,7,5   R_row101  1
    x_5,7,5   R_sub148  1
    x_5,7,6   R_pos22   1
    x_5,7,6   R_row102  1
    x_5,7,7   R_pos22   1
    x_5,7,7   R_row103  1
    x_5,7,7   R_sub149  1
    x_5,7,8   R_pos22   1
    x_5,7,9   R_pos22   1
    x_5,9,1   R_pos23   1
    x_5,9,1   R_col75   1
    x_5,9,1   R_sub144  1
    x_5,9,2   R_pos23   1
    x_5,9,2   R_col76   1
    x_5,9,2   R_sub145  1
    x_5,9,3   R_pos23   1
    x_5,9,3   R_sub146  1
    x_5,9,4   R_pos23   1
    x_5,9,4   R_col77   1
    x_5,9,4   R_row100  1
    x_5,9,4   R_sub147  1
    x_5,9,5   R_pos23   1
    x_5,9,5   R_col78   1
    x_5,9,5   R_row101  1
    x_5,9,5   R_sub148  1
    x_5,9,6   R_pos23   1
    x_5,9,6   R_row102  1
    x_5,9,7   R_pos23   1
    x_5,9,7   R_col79   1
    x_5,9,7   R_row103  1
    x_5,9,7   R_sub149  1
    x_5,9,8   R_pos23   1
    x_5,9,9   R_pos23   1
    x_5,9,9   R_col80   1
    x_6,4,1   R_pos24   1
    x_6,4,1   R_col54   1
    x_6,4,1   R_row104  1
    x_6,4,2   R_pos24   1
    x_6,4,2   R_row105  1
    x_6,4,3   R_pos24   1
    x_6,4,3   R_col55   1
    x_6,4,3   R_row106  1
    x_6,4,3   R_sub139  1
    x_6,4,4   R_pos24   1
    x_6,4,5   R_pos24   1
    x_6,4,5   R_row107  1
    x_6,4,5   R_sub140  1
    x_6,4,6   R_pos24   1
    x_6,4,6   R_col56   1
    x_6,4,6   R_row108  1
    x_6,4,6   R_sub141  1
    x_6,4,7   R_pos24   1
    x_6,4,7   R_col57   1
    x_6,4,7   R_sub142  1
    x_6,4,8   R_pos24   1
    x_6,4,8   R_row109  1
    x_6,4,8   R_sub143  1
    x_6,4,9   R_pos24   1
    x_6,5,1   R_pos25   1
    x_6,5,1   R_row104  1
    x_6,5,2   R_pos25   1
    x_6,5,2   R_col58   1
    x_6,5,2   R_row105  1
    x_6,5,3   R_pos25   1
    x_6,5,3   R_col59   1
    x_6,5,3   R_row106  1
    x_6,5,3   R_sub139  1
    x_6,5,4   R_pos25   1
    x_6,5,4   R_col60   1
    x_6,5,5   R_pos25   1
    x_6,5,5   R_col61   1
    x_6,5,5   R_row107  1
    x_6,5,5   R_sub140  1
    x_6,5,6   R_pos25   1
    x_6,5,6   R_col62   1
    x_6,5,6   R_row108  1
    x_6,5,6   R_sub141  1
    x_6,5,7   R_pos25   1
    x_6,5,7   R_sub142  1
    x_6,5,8   R_pos25   1
    x_6,5,8   R_row109  1
    x_6,5,8   R_sub143  1
    x_6,5,9   R_pos25   1
    x_6,6,1   R_pos26   1
    x_6,6,1   R_col63   1
    x_6,6,1   R_row104  1
    x_6,6,2   R_pos26   1
    x_6,6,2   R_row105  1
    x_6,6,3   R_pos26   1
    x_6,6,3   R_col64   1
    x_6,6,3   R_row106  1
    x_6,6,3   R_sub139  1
    x_6,6,4   R_pos26   1
    x_6,6,5   R_pos26   1
    x_6,6,5   R_col65   1
    x_6,6,5   R_row107  1
    x_6,6,5   R_sub140  1
    x_6,6,6   R_pos26   1
    x_6,6,6   R_row108  1
    x_6,6,6   R_sub141  1
    x_6,6,7   R_pos26   1
    x_6,6,7   R_col66   1
    x_6,6,7   R_sub142  1
    x_6,6,8   R_pos26   1
    x_6,6,8   R_col67   1
    x_6,6,8   R_row109  1
    x_6,6,8   R_sub143  1
    x_6,6,9   R_pos26   1
    x_6,7,1   R_pos27   1
    x_6,7,1   R_row104  1
    x_6,7,1   R_sub144  1
    x_6,7,2   R_pos27   1
    x_6,7,2   R_col68   1
    x_6,7,2   R_row105  1
    x_6,7,2   R_sub145  1
    x_6,7,3   R_pos27   1
    x_6,7,3   R_row106  1
    x_6,7,3   R_sub146  1
    x_6,7,4   R_pos27   1
    x_6,7,4   R_sub147  1
    x_6,7,5   R_pos27   1
    x_6,7,5   R_col69   1
    x_6,7,5   R_row107  1
    x_6,7,5   R_sub148  1
    x_6,7,6   R_pos27   1
    x_6,7,6   R_row108  1
    x_6,7,7   R_pos27   1
    x_6,7,7   R_sub149  1
    x_6,7,8   R_pos27   1
    x_6,7,8   R_row109  1
    x_6,7,9   R_pos27   1
    x_6,8,1   R_pos28   1
    x_6,8,1   R_col70   1
    x_6,8,1   R_row104  1
    x_6,8,1   R_sub144  1
    x_6,8,2   R_pos28   1
    x_6,8,2   R_row105  1
    x_6,8,2   R_sub145  1
    x_6,8,3   R_pos28   1
    x_6,8,3   R_col71   1
    x_6,8,3   R_row106  1
    x_6,8,3   R_sub146  1
    x_6,8,4   R_pos28   1
    x_6,8,4   R_col72   1
    x_6,8,4   R_sub147  1
    x_6,8,5   R_pos28   1
    x_6,8,5   R_row107  1
    x_6,8,5   R_sub148  1
    x_6,8,6   R_pos28   1
    x_6,8,6   R_row108  1
    x_6,8,7   R_pos28   1
    x_6,8,7   R_col73   1
    x_6,8,7   R_sub149  1
    x_6,8,8   R_pos28   1
    x_6,8,8   R_col74   1
    x_6,8,8   R_row109  1
    x_6,8,9   R_pos28   1
    x_6,9,1   R_pos29   1
    x_6,9,1   R_col75   1
    x_6,9,1   R_row104  1
    x_6,9,1   R_sub144  1
    x_6,9,2   R_pos29   1
    x_6,9,2   R_col76   1
    x_6,9,2   R_row105  1
    x_6,9,2   R_sub145  1
    x_6,9,3   R_pos29   1
    x_6,9,3   R_row106  1
    x_6,9,3   R_sub146  1
    x_6,9,4   R_pos29   1
    x_6,9,4   R_col77   1
    x_6,9,4   R_sub147  1
    x_6,9,5   R_pos29   1
    x_6,9,5   R_col78   1
    x_6,9,5   R_row107  1
    x_6,9,5   R_sub148  1
    x_6,9,6   R_pos29   1
    x_6,9,6   R_row108  1
    x_6,9,7   R_pos29   1
    x_6,9,7   R_col79   1
    x_6,9,7   R_sub149  1
    x_6,9,8   R_pos29   1
    x_6,9,8   R_row109  1
    x_6,9,9   R_pos29   1
    x_6,9,9   R_col80   1
    x_7,1,1   R_pos30   1
    x_7,1,1   R_col41   1
    x_7,1,1   R_row110  1
    x_7,1,1   R_sub150  1
    x_7,1,2   R_pos30   1
    x_7,1,2   R_col42   1
    x_7,1,2   R_sub151  1
    x_7,1,3   R_pos30   1
    x_7,1,3   R_row111  1
    x_7,1,3   R_sub152  1
    x_7,1,4   R_pos30   1
    x_7,1,4   R_col43   1
    x_7,1,4   R_row112  1
    x_7,1,4   R_sub153  1
    x_7,1,5   R_pos30   1
    x_7,1,5   R_col44   1
    x_7,1,5   R_sub154  1
    x_7,1,6   R_pos30   1
    x_7,1,6   R_col45   1
    x_7,1,7   R_pos30   1
    x_7,1,8   R_pos30   1
    x_7,1,8   R_sub155  1
    x_7,1,9   R_pos30   1
    x_7,2,1   R_pos31   1
    x_7,2,1   R_row110  1
    x_7,2,1   R_sub150  1
    x_7,2,2   R_pos31   1
    x_7,2,2   R_col46   1
    x_7,2,2   R_sub151  1
    x_7,2,3   R_pos31   1
    x_7,2,3   R_col47   1
    x_7,2,3   R_row111  1
    x_7,2,3   R_sub152  1
    x_7,2,4   R_pos31   1
    x_7,2,4   R_row112  1
    x_7,2,4   R_sub153  1
    x_7,2,5   R_pos31   1
    x_7,2,5   R_col48   1
    x_7,2,5   R_sub154  1
    x_7,2,6   R_pos31   1
    x_7,2,6   R_col49   1
    x_7,2,7   R_pos31   1
    x_7,2,7   R_col50   1
    x_7,2,8   R_pos31   1
    x_7,2,8   R_sub155  1
    x_7,2,9   R_pos31   1
    x_7,5,1   R_pos32   1
    x_7,5,1   R_row110  1
    x_7,5,1   R_sub156  1
    x_7,5,2   R_pos32   1
    x_7,5,2   R_col58   1
    x_7,5,3   R_pos32   1
    x_7,5,3   R_col59   1
    x_7,5,3   R_row111  1
    x_7,5,3   R_sub157  1
    x_7,5,4   R_pos32   1
    x_7,5,4   R_col60   1
    x_7,5,4   R_row112  1
    x_7,5,4   R_sub158  1
    x_7,5,5   R_pos32   1
    x_7,5,5   R_col61   1
    x_7,5,6   R_pos32   1
    x_7,5,6   R_col62   1
    x_7,5,6   R_sub159  1
    x_7,5,7   R_pos32   1
    x_7,5,8   R_pos32   1
    x_7,5,9   R_pos32   1
    x_8,1,1   R_pos33   1
    x_8,1,1   R_col41   1
    x_8,1,1   R_sub150  1
    x_8,1,2   R_pos33   1
    x_8,1,2   R_col42   1
    x_8,1,2   R_row113  1
    x_8,1,2   R_sub151  1
    x_8,1,3   R_pos33   1
    x_8,1,3   R_row114  1
    x_8,1,3   R_sub152  1
    x_8,1,4   R_pos33   1
    x_8,1,4   R_col43   1
    x_8,1,4   R_row115  1
    x_8,1,4   R_sub153  1
    x_8,1,5   R_pos33   1
    x_8,1,5   R_col44   1
    x_8,1,5   R_sub154  1
    x_8,1,6   R_pos33   1
    x_8,1,6   R_col45   1
    x_8,1,7   R_pos33   1
    x_8,1,8   R_pos33   1
    x_8,1,8   R_row116  1
    x_8,1,8   R_sub155  1
    x_8,1,9   R_pos33   1
    x_8,3,1   R_pos34   1
    x_8,3,1   R_sub150  1
    x_8,3,2   R_pos34   1
    x_8,3,2   R_row113  1
    x_8,3,2   R_sub151  1
    x_8,3,3   R_pos34   1
    x_8,3,3   R_row114  1
    x_8,3,3   R_sub152  1
    x_8,3,4   R_pos34   1
    x_8,3,4   R_col51   1
    x_8,3,4   R_row115  1
    x_8,3,4   R_sub153  1
    x_8,3,5   R_pos34   1
    x_8,3,5   R_col52   1
    x_8,3,5   R_sub154  1
    x_8,3,6   R_pos34   1
    x_8,3,7   R_pos34   1
    x_8,3,8   R_pos34   1
    x_8,3,8   R_col53   1
    x_8,3,8   R_row116  1
    x_8,3,8   R_sub155  1
    x_8,3,9   R_pos34   1
    x_8,6,1   R_pos35   1
    x_8,6,1   R_col63   1
    x_8,6,1   R_sub156  1
    x_8,6,2   R_pos35   1
    x_8,6,2   R_row113  1
    x_8,6,3   R_pos35   1
    x_8,6,3   R_col64   1
    x_8,6,3   R_row114  1
    x_8,6,3   R_sub157  1
    x_8,6,4   R_pos35   1
    x_8,6,4   R_row115  1
    x_8,6,4   R_sub158  1
    x_8,6,5   R_pos35   1
    x_8,6,5   R_col65   1
    x_8,6,6   R_pos35   1
    x_8,6,6   R_sub159  1
    x_8,6,7   R_pos35   1
    x_8,6,7   R_col66   1
    x_8,6,8   R_pos35   1
    x_8,6,8   R_col67   1
    x_8,6,8   R_row116  1
    x_8,6,9   R_pos35   1
    x_8,8,1   R_pos36   1
    x_8,8,1   R_col70   1
    x_8,8,2   R_pos36   1
    x_8,8,2   R_row113  1
    x_8,8,3   R_pos36   1
    x_8,8,3   R_col71   1
    x_8,8,3   R_row114  1
    x_8,8,4   R_pos36   1
    x_8,8,4   R_col72   1
    x_8,8,4   R_row115  1
    x_8,8,4   R_sub160  1
    x_8,8,5   R_pos36   1
    x_8,8,6   R_pos36   1
    x_8,8,7   R_pos36   1
    x_8,8,7   R_col73   1
    x_8,8,8   R_pos36   1
    x_8,8,8   R_col74   1
    x_8,8,8   R_row116  1
    x_8,8,9   R_pos36   1
    x_9,2,1   R_pos37   1
    x_9,2,1   R_row117  1
    x_9,2,1   R_sub150  1
    x_9,2,2   R_pos37   1
    x_9,2,2   R_col46   1
    x_9,2,2   R_sub151  1
    x_9,2,3   R_pos37   1
    x_9,2,3   R_col47   1
    x_9,2,3   R_sub152  1
    x_9,2,4   R_pos37   1
    x_9,2,4   R_row118  1
    x_9,2,4   R_sub153  1
    x_9,2,5   R_pos37   1
    x_9,2,5   R_col48   1
    x_9,2,5   R_row119  1
    x_9,2,5   R_sub154  1
    x_9,2,6   R_pos37   1
    x_9,2,6   R_col49   1
    x_9,2,6   R_row120  1
    x_9,2,7   R_pos37   1
    x_9,2,7   R_col50   1
    x_9,2,8   R_pos37   1
    x_9,2,8   R_sub155  1
    x_9,2,9   R_pos37   1
    x_9,3,1   R_pos38   1
    x_9,3,1   R_row117  1
    x_9,3,1   R_sub150  1
    x_9,3,2   R_pos38   1
    x_9,3,2   R_sub151  1
    x_9,3,3   R_pos38   1
    x_9,3,3   R_sub152  1
    x_9,3,4   R_pos38   1
    x_9,3,4   R_col51   1
    x_9,3,4   R_row118  1
    x_9,3,4   R_sub153  1
    x_9,3,5   R_pos38   1
    x_9,3,5   R_col52   1
    x_9,3,5   R_row119  1
    x_9,3,5   R_sub154  1
    x_9,3,6   R_pos38   1
    x_9,3,6   R_row120  1
    x_9,3,7   R_pos38   1
    x_9,3,8   R_pos38   1
    x_9,3,8   R_col53   1
    x_9,3,8   R_sub155  1
    x_9,3,9   R_pos38   1
    x_9,5,1   R_pos39   1
    x_9,5,1   R_row117  1
    x_9,5,1   R_sub156  1
    x_9,5,2   R_pos39   1
    x_9,5,2   R_col58   1
    x_9,5,3   R_pos39   1
    x_9,5,3   R_col59   1
    x_9,5,3   R_sub157  1
    x_9,5,4   R_pos39   1
    x_9,5,4   R_col60   1
    x_9,5,4   R_row118  1
    x_9,5,4   R_sub158  1
    x_9,5,5   R_pos39   1
    x_9,5,5   R_col61   1
    x_9,5,5   R_row119  1
    x_9,5,6   R_pos39   1
    x_9,5,6   R_col62   1
    x_9,5,6   R_row120  1
    x_9,5,6   R_sub159  1
    x_9,5,7   R_pos39   1
    x_9,5,8   R_pos39   1
    x_9,5,9   R_pos39   1
    x_9,6,1   R_pos40   1
    x_9,6,1   R_col63   1
    x_9,6,1   R_row117  1
    x_9,6,1   R_sub156  1
    x_9,6,2   R_pos40   1
    x_9,6,3   R_pos40   1
    x_9,6,3   R_col64   1
    x_9,6,3   R_sub157  1
    x_9,6,4   R_pos40   1
    x_9,6,4   R_row118  1
    x_9,6,4   R_sub158  1
    x_9,6,5   R_pos40   1
    x_9,6,5   R_col65   1
    x_9,6,5   R_row119  1
    x_9,6,6   R_pos40   1
    x_9,6,6   R_row120  1
    x_9,6,6   R_sub159  1
    x_9,6,7   R_pos40   1
    x_9,6,7   R_col66   1
    x_9,6,8   R_pos40   1
    x_9,6,8   R_col67   1
    x_9,6,9   R_pos40   1
    MARKER    'MARKER'                 'INTEND'
RHS
    RHS1      R_pos1    1
    RHS1      R_pos2    1
    RHS1      R_pos3    1
    RHS1      R_pos4    1
    RHS1      R_pos5    1
    RHS1      R_pos6    1
    RHS1      R_pos7    1
    RHS1      R_pos8    1
    RHS1      R_pos9    1
    RHS1      R_pos10   1
    RHS1      R_pos11   1
    RHS1      R_pos12   1
    RHS1      R_pos13   1
    RHS1      R_pos14   1
    RHS1      R_pos15   1
    RHS1      R_pos16   1
    RHS1      R_pos17   1
    RHS1      R_pos18   1
    RHS1      R_pos19   1
    RHS1      R_pos20   1
    RHS1      R_pos21   1
    RHS1      R_pos22   1
    RHS1      R_pos23   1
    RHS1      R_pos24   1
    RHS1      R_pos25   1
    RHS1      R_pos26   1
    RHS1      R_pos27   1
    RHS1      R_pos28   1
    RHS1      R_pos29   1
    RHS1      R_pos30   1
    RHS1      R_pos31   1
    RHS1      R_pos32   1
    RHS1      R_pos33   1
    RHS1      R_pos34   1
    RHS1      R_pos35   1
    RHS1      R_pos36   1
    RHS1      R_pos37   1
    RHS1      R_pos38   1
    RHS1      R_pos39   1
    RHS1      R_pos40   1
    RHS1      R_col41   1
    RHS1      R_col42   1
    RHS1      R_col43   1
    RHS1      R_col44   1
    RHS1      R_col45   1
    RHS1      R_col46   1
    RHS1      R_col47   1
    RHS1      R_col48   1
    RHS1      R_col49   1
    RHS1      R_col50   1
    RHS1      R_col51   1
    RHS1      R_col52   1
    RHS1      R_col53   1
    RHS1      R_col54   1
    RHS1      R_col55   1
    RHS1      R_col56   1
    RHS1      R_col57   1
    RHS1      R_col58   1
    RHS1      R_col59   1
    RHS1      R_col60   1
    RHS1      R_col61   1
    RHS1      R_col62   1
    RHS1      R_col63   1
    RHS1      R_col64   1
    RHS1      R_col65   1
    RHS1      R_col66   1
    RHS1      R_col67   1
    RHS1      R_col68   1
    RHS1      R_col69   1
    RHS1      R_col70   1
    RHS1      R_col71   1
    RHS1      R_col72   1
    RHS1      R_col73   1
    RHS1      R_col74   1
    RHS1      R_col75   1
    RHS1      R_col76   1
    RHS1      R_col77   1
    RHS1      R_col78   1
    RHS1      R_col79   1
    RHS1      R_col80   1
    RHS1      R_row81   1
    RHS1      R_row82   1
    RHS1      R_row83   1
    RHS1      R_row84   1
    RHS1      R_row85   1
    RHS1      R_row86   1
    RHS1      R_row87   1
    RHS1      R_row88   1
    RHS1      R_row89   1
    RHS1      R_row90   1
    RHS1      R_row91   1
    RHS1      R_row92   1
    RHS1      R_row93   1
    RHS1      R_row94   1
    RHS1      R_row95   1
    RHS1      R_row96   1
    RHS1      R_row97   1
    RHS1      R_row98   1
    RHS1      R_row99   1
    RHS1      R_row100  1
    RHS1      R_row101  1
    RHS1      R_row102  1
    RHS1      R_row103  1
    RHS1      R_row104  1
    RHS1      R_row105  1
    RHS1      R_row106  1
    RHS1      R_row107  1
    RHS1      R_row108  1
    RHS1      R_row109  1
    RHS1      R_row110  1
    RHS1      R_row111  1
    RHS1      R_row112  1
    RHS1      R_row113  1
    RHS1      R_row114  1
    RHS1      R_row115  1
    RHS1      R_row116  1
    RHS1      R_row117  1
    RHS1      R_row118  1
    RHS1      R_row119  1
    RHS1      R_row120  1
    RHS1      R_sub121  1
    RHS1      R_sub122  1
    RHS1      R_sub123  1
    RHS1      R_sub124  1
    RHS1      R_sub125  1
    RHS1      R_sub126  1
    RHS1      R_sub127  1
    RHS1      R_sub128  1
    RHS1      R_sub129  1
    RHS1      R_sub130  1
    RHS1      R_sub131  1
    RHS1      R_sub132  1
    RHS1      R_sub133  1
    RHS1      R_sub134  1
    RHS1      R_sub135  1
    RHS1      R_sub136  1
    RHS1      R_sub137  1
    RHS1      R_sub138  1
    RHS1      R_sub139  1
    RHS1      R_sub140  1
    RHS1      R_sub141  1
    RHS1      R_sub142  1
    RHS1      R_sub143  1
    RHS1      R_sub144  1
    RHS1      R_sub145  1
    RHS1      R_sub146  1
    RHS1      R_sub147  1
    RHS1      R_sub148  1
    RHS1      R_sub149  1
    RHS1      R_sub150  1
    RHS1      R_sub151  1
    RHS1      R_sub152  1
    RHS1      R_sub153  1
    RHS1      R_sub154  1
    RHS1      R_sub155  1
    RHS1      R_sub156  1
    RHS1      R_sub157  1
    RHS1      R_sub158  1
    RHS1      R_sub159  1
    RHS1      R_sub160  1
BOUNDS
 BV BND1      x_1,1,1 
 BV BND1      x_1,1,2 
 BV BND1      x_1,1,3 
 BV BND1      x_1,1,4 
 BV BND1      x_1,1,5 
 BV BND1      x_1,1,6 
 BV BND1      x_1,1,7 
 BV BND1      x_1,1,8 
 BV BND1      x_1,1,9 
 BV BND1      x_1,2,1 
 BV BND1      x_1,2,2 
 BV BND1      x_1,2,3 
 BV BND1      x_1,2,4 
 BV BND1      x_1,2,5 
 BV BND1      x_1,2,6 
 BV BND1      x_1,2,7 
 BV BND1      x_1,2,8 
 BV BND1      x_1,2,9 
 BV BND1      x_1,4,1 
 BV BND1      x_1,4,2 
 BV BND1      x_1,4,3 
 BV BND1      x_1,4,4 
 BV BND1      x_1,4,5 
 BV BND1      x_1,4,6 
 BV BND1      x_1,4,7 
 BV BND1      x_1,4,8 
 BV BND1      x_1,4,9 
 BV BND1      x_1,5,1 
 BV BND1      x_1,5,2 
 BV BND1      x_1,5,3 
 BV BND1      x_1,5,4 
 BV BND1      x_1,5,5 
 BV BND1      x_1,5,6 
 BV BND1      x_1,5,7 
 BV BND1      x_1,5,8 
 BV BND1      x_1,5,9 
 BV BND1      x_1,8,1 
 BV BND1      x_1,8,2 
 BV BND1      x_1,8,3 
 BV BND1      x_1,8,4 
 BV BND1      x_1,8,5 
 BV BND1      x_1,8,6 
 BV BND1      x_1,8,7 
 BV BND1      x_1,8,8 
 BV BND1      x_1,8,9 
 BV BND1      x_1,9,1 
 BV BND1      x_1,9,2 
 BV BND1      x_1,9,3 
 BV BND1      x_1,9,4 
 BV BND1      x_1,9,5 
 BV BND1      x_1,9,6 
 BV BND1      x_1,9,7 
 BV BND1      x_1,9,8 
 BV BND1      x_1,9,9 
 BV BND1      x_2,1,1 
 BV BND1      x_2,1,2 
 BV BND1      x_2,1,3 
 BV BND1      x_2,1,4 
 BV BND1      x_2,1,5 
 BV BND1      x_2,1,6 
 BV BND1      x_2,1,7 
 BV BND1      x_2,1,8 
 BV BND1      x_2,1,9 
 BV BND1      x_2,2,1 
 BV BND1      x_2,2,2 
 BV BND1      x_2,2,3 
 BV BND1      x_2,2,4 
 BV BND1      x_2,2,5 
 BV BND1      x_2,2,6 
 BV BND1      x_2,2,7 
 BV BND1      x_2,2,8 
 BV BND1      x_2,2,9 
 BV BND1      x_2,4,1 
 BV BND1      x_2,4,2 
 BV BND1      x_2,4,3 
 BV BND1      x_2,4,4 
 BV BND1      x_2,4,5 
 BV BND1      x_2,4,6 
 BV BND1      x_2,4,7 
 BV BND1      x_2,4,8 
 BV BND1      x_2,4,9 
 BV BND1      x_2,6,1 
 BV BND1      x_2,6,2 
 BV BND1      x_2,6,3 
 BV BND1      x_2,6,4 
 BV BND1      x_2,6,5 
 BV BND1      x_2,6,6 
 BV BND1      x_2,6,7 
 BV BND1      x_2,6,8 
 BV BND1      x_2,6,9 
 BV BND1      x_2,8,1 
 BV BND1      x_2,8,2 
 BV BND1      x_2,8,3 
 BV BND1      x_2,8,4 
 BV BND1      x_2,8,5 
 BV BND1      x_2,8,6 
 BV BND1      x_2,8,7 
 BV BND1      x_2,8,8 
 BV BND1      x_2,8,9 
 BV BND1      x_2,9,1 
 BV BND1      x_2,9,2 
 BV BND1      x_2,9,3 
 BV BND1      x_2,9,4 
 BV BND1      x_2,9,5 
 BV BND1      x_2,9,6 
 BV BND1      x_2,9,7 
 BV BND1      x_2,9,8 
 BV BND1      x_2,9,9 
 BV BND1      x_3,3,1 
 BV BND1      x_3,3,2 
 BV BND1      x_3,3,3 
 BV BND1      x_3,3,4 
 BV BND1      x_3,3,5 
 BV BND1      x_3,3,6 
 BV BND1      x_3,3,7 
 BV BND1      x_3,3,8 
 BV BND1      x_3,3,9 
 BV BND1      x_3,6,1 
 BV BND1      x_3,6,2 
 BV BND1      x_3,6,3 
 BV BND1      x_3,6,4 
 BV BND1      x_3,6,5 
 BV BND1      x_3,6,6 
 BV BND1      x_3,6,7 
 BV BND1      x_3,6,8 
 BV BND1      x_3,6,9 
 BV BND1      x_3,8,1 
 BV BND1      x_3,8,2 
 BV BND1      x_3,8,3 
 BV BND1      x_3,8,4 
 BV BND1      x_3,8,5 
 BV BND1      x_3,8,6 
 BV BND1      x_3,8,7 
 BV BND1      x_3,8,8 
 BV BND1      x_3,8,9 
 BV BND1      x_3,9,1 
 BV BND1      x_3,9,2 
 BV BND1      x_3,9,3 
 BV BND1      x_3,9,4 
 BV BND1      x_3,9,5 
 BV BND1      x_3,9,6 
 BV BND1      x_3,9,7 
 BV BND1      x_3,9,8 
 BV BND1      x_3,9,9 
 BV BND1      x_4,1,1 
 BV BND1      x_4,1,2 
 BV BND1      x_4,1,3 
 BV BND1      x_4,1,4 
 BV BND1      x_4,1,5 
 BV BND1      x_4,1,6 
 BV BND1      x_4,1,7 
 BV BND1      x_4,1,8 
 BV BND1      x_4,1,9 
 BV BND1      x_4,5,1 
 BV BND1      x_4,5,2 
 BV BND1      x_4,5,3 
 BV BND1      x_4,5,4 
 BV BND1      x_4,5,5 
 BV BND1      x_4,5,6 
 BV BND1      x_4,5,7 
 BV BND1      x_4,5,8 
 BV BND1      x_4,5,9 
 BV BND1      x_4,9,1 
 BV BND1      x_4,9,2 
 BV BND1      x_4,9,3 
 BV BND1      x_4,9,4 
 BV BND1      x_4,9,5 
 BV BND1      x_4,9,6 
 BV BND1      x_4,9,7 
 BV BND1      x_4,9,8 
 BV BND1      x_4,9,9 
 BV BND1      x_5,2,1 
 BV BND1      x_5,2,2 
 BV BND1      x_5,2,3 
 BV BND1      x_5,2,4 
 BV BND1      x_5,2,5 
 BV BND1      x_5,2,6 
 BV BND1      x_5,2,7 
 BV BND1      x_5,2,8 
 BV BND1      x_5,2,9 
 BV BND1      x_5,4,1 
 BV BND1      x_5,4,2 
 BV BND1      x_5,4,3 
 BV BND1      x_5,4,4 
 BV BND1      x_5,4,5 
 BV BND1      x_5,4,6 
 BV BND1      x_5,4,7 
 BV BND1      x_5,4,8 
 BV BND1      x_5,4,9 
 BV BND1      x_5,7,1 
 BV BND1      x_5,7,2 
 BV BND1      x_5,7,3 
 BV BND1      x_5,7,4 
 BV BND1      x_5,7,5 
 BV BND1      x_5,7,6 
 BV BND1      x_5,7,7 
 BV BND1      x_5,7,8 
 BV BND1      x_5,7,9 
 BV BND1      x_5,9,1 
 BV BND1      x_5,9,2 
 BV BND1      x_5,9,3 
 BV BND1      x_5,9,4 
 BV BND1      x_5,9,5 
 BV BND1      x_5,9,6 
 BV BND1      x_5,9,7 
 BV BND1      x_5,9,8 
 BV BND1      x_5,9,9 
 BV BND1      x_6,4,1 
 BV BND1      x_6,4,2 
 BV BND1      x_6,4,3 
 BV BND1      x_6,4,4 
 BV BND1      x_6,4,5 
 BV BND1      x_6,4,6 
 BV BND1      x_6,4,7 
 BV BND1      x_6,4,8 
 BV BND1      x_6,4,9 
 BV BND1      x_6,5,1 
 BV BND1      x_6,5,2 
 BV BND1      x_6,5,3 
 BV BND1      x_6,5,4 
 BV BND1      x_6,5,5 
 BV BND1      x_6,5,6 
 BV BND1      x_6,5,7 
 BV BND1      x_6,5,8 
 BV BND1      x_6,5,9 
 BV BND1      x_6,6,1 
 BV BND1      x_6,6,2 
 BV BND1      x_6,6,3 
 BV BND1      x_6,6,4 
 BV BND1      x_6,6,5 
 BV BND1      x_6,6,6 
 BV BND1      x_6,6,7 
 BV BND1      x_6,6,8 
 BV BND1      x_6,6,9 
 BV BND1      x_6,7,1 
 BV BND1      x_6,7,2 
 BV BND1      x_6,7,3 
 BV BND1      x_6,7,4 
 BV BND1      x_6,7,5 
 BV BND1      x_6,7,6 
 BV BND1      x_6,7,7 
 BV BND1      x_6,7,8 
 BV BND1      x_6,7,9 
 BV BND1      x_6,8,1 
 BV BND1      x_6,8,2 
 BV BND1      x_6,8,3 
 BV BND1      x_6,8,4 
 BV BND1      x_6,8,5 
 BV BND1      x_6,8,6 
 BV BND1      x_6,8,7 
 BV BND1      x_6,8,8 
 BV BND1      x_6,8,9 
 BV BND1      x_6,9,1 
 BV BND1      x_6,9,2 
 BV BND1      x_6,9,3 
 BV BND1      x_6,9,4 
 BV BND1      x_6,9,5 
 BV BND1      x_6,9,6 
 BV BND1      x_6,9,7 
 BV BND1      x_6,9,8 
 BV BND1      x_6,9,9 
 BV BND1      x_7,1,1 
 BV BND1      x_7,1,2 
 BV BND1      x_7,1,3 
 BV BND1      x_7,1,4 
 BV BND1      x_7,1,5 
 BV BND1      x_7,1,6 
 BV BND1      x_7,1,7 
 BV BND1      x_7,1,8 
 BV BND1      x_7,1,9 
 BV BND1      x_7,2,1 
 BV BND1      x_7,2,2 
 BV BND1      x_7,2,3 
 BV BND1      x_7,2,4 
 BV BND1      x_7,2,5 
 BV BND1      x_7,2,6 
 BV BND1      x_7,2,7 
 BV BND1      x_7,2,8 
 BV BND1      x_7,2,9 
 BV BND1      x_7,5,1 
 BV BND1      x_7,5,2 
 BV BND1      x_7,5,3 
 BV BND1      x_7,5,4 
 BV BND1      x_7,5,5 
 BV BND1      x_7,5,6 
 BV BND1      x_7,5,7 
 BV BND1      x_7,5,8 
 BV BND1      x_7,5,9 
 BV BND1      x_8,1,1 
 BV BND1      x_8,1,2 
 BV BND1      x_8,1,3 
 BV BND1      x_8,1,4 
 BV BND1      x_8,1,5 
 BV BND1      x_8,1,6 
 BV BND1      x_8,1,7 
 BV BND1      x_8,1,8 
 BV BND1      x_8,1,9 
 BV BND1      x_8,3,1 
 BV BND1      x_8,3,2 
 BV BND1      x_8,3,3 
 BV BND1      x_8,3,4 
 BV BND1      x_8,3,5 
 BV BND1      x_8,3,6 
 BV BND1      x_8,3,7 
 BV BND1      x_8,3,8 
 BV BND1      x_8,3,9 
 BV BND1      x_8,6,1 
 BV BND1      x_8,6,2 
 BV BND1      x_8,6,3 
 BV BND1      x_8,6,4 
 BV BND1      x_8,6,5 
 BV BND1      x_8,6,6 
 BV BND1      x_8,6,7 
 BV BND1      x_8,6,8 
 BV BND1      x_8,6,9 
 BV BND1      x_8,8,1 
 BV BND1      x_8,8,2 
 BV BND1      x_8,8,3 
 BV BND1      x_8,8,4 
 BV BND1      x_8,8,5 
 BV BND1      x_8,8,6 
 BV BND1      x_8,8,7 
 BV BND1      x_8,8,8 
 BV BND1      x_8,8,9 
 BV BND1      x_9,2,1 
 BV BND1      x_9,2,2 
 BV BND1      x_9,2,3 
 BV BND1      x_9,2,4 
 BV BND1      x_9,2,5 
 BV BND1      x_9,2,6 
 BV BND1      x_9,2,7 
 BV BND1      x_9,2,8 
 BV BND1      x_9,2,9 
 BV BND1      x_9,3,1 
 BV BND1      x_9,3,2 
 BV BND1      x_9,3,3 
 BV BND1      x_9,3,4 
 BV BND1      x_9,3,5 
 BV BND1      x_9,3,6 
 BV BND1      x_9,3,7 
 BV BND1      x_9,3,8 
 BV BND1      x_9,3,9 
 BV BND1      x_9,5,1 
 BV BND1      x_9,5,2 
 BV BND1      x_9,5,3 
 BV BND1      x_9,5,4 
 BV BND1      x_9,5,5 
 BV BND1      x_9,5,6 
 BV BND1      x_9,5,7 
 BV BND1      x_9,5,8 
 BV BND1      x_9,5,9 
 BV BND1      x_9,6,1 
 BV BND1      x_9,6,2 
 BV BND1      x_9,6,3 
 BV BND1      x_9,6,4 
 BV BND1      x_9,6,5 
 BV BND1      x_9,6,6 
 BV BND1      x_9,6,7 
 BV BND1      x_9,6,8 
 BV BND1      x_9,6,9 
ENDATA
